interdiction/MCDM/NO_CORR/GEN_FROM_60/10_ITEMS_1000_GEN/K5011W03.KNP.mps
NAME          BLANK   
ROWS
 N  OBJROW
 L  R0000000
COLUMNS
    C0000000  OBJROW     -735.         R0000000  311.        
    C0000001  OBJROW     -258.         R0000000  76.         
    C0000002  OBJROW     -680.         R0000000  269.        
    C0000003  OBJROW     -259.         R0000000  647.        
    C0000004  OBJROW     -221.         R0000000  117.        
    C0000005  OBJROW     -590.         R0000000  310.        
    C0000006  OBJROW     -531.         R0000000  958.        
    C0000007  OBJROW     -154.         R0000000  174.        
    C0000008  OBJROW     -331.         R0000000  395.        
    C0000009  OBJROW     -420.         R0000000  429.        
    C0000010  OBJROW     -709.         R0000000  572.        
RHS
    RHS       R0000000  13865.      
BOUNDS
 BV BOUND     C0000000  1.          
 BV BOUND     C0000001  1.          
 BV BOUND     C0000002  1.          
 BV BOUND     C0000003  1.          
 BV BOUND     C0000004  1.          
 BV BOUND     C0000005  1.          
 BV BOUND     C0000006  1.          
 BV BOUND     C0000007  1.          
 BV BOUND     C0000008  1.          
 BV BOUND     C0000009  1.          
 BV BOUND     C0000010  1.          
ENDATA
