interdiction/MCDM/NO_CORR/GEN_FROM_60/10_ITEMS_1000_GEN/K5011W03.KNP.txt
N 11
M 12
LC 11
LC 12
LC 13
LC 14
LC 15
LC 16
LC 17
LC 18
LC 19
LC 20
LC 21
LR 1
LR 2
LR 3
LR 4
LR 5
LR 6
LR 7
LR 8
LR 9
LR 10
LR 11
LR 12
LO -735
LO -258
LO -680
LO -259
LO -221
LO -590
LO -531
LO -154
LO -331
LO -420
LO -709
OS 1
IC 403
IC 176
IC 931
IC 33
IC 690
IC 969
IC 576
IC 79
IC 190
IC 734
IC 998
IB 2890
